Minimize
  obj: x0 + x1 + x2 + x3 + x4 + x5 + x6

Subject To
  c0: x0 + x3 + x4 = 27
  c1: x0 + x3 + x4 + x5 = 27
  c2: x0 + x3 + x5 = 19
  c3: x0 + x1 + x2 + x3 + x4 + x6 = 72
  c4: x0 + x1 + x2 = 49
  c5: x2 + x3 + x4 = 29
  c6: x0 + x2 + x4 + x6 = 57
  c7: x0 + x3 + x4 = 27

Bounds
  x0 >= 0
  x1 >= 0
  x2 >= 0
  x3 >= 0
  x4 >= 0
  x5 >= 0
  x6 >= 0

Generals
  x0 x1 x2 x3 x4 x5 x6

End
